lab4:NetworkFlow/lab4.out
total_flow = 1369

